Set parameter TokenServer to value "hpc-licenses.hpcc.usc.edu"
Set parameter TimeLimit to value 3600
Gurobi Optimizer version 9.5.1 build v9.5.1rc2 (linux64)
Thread count: 20 physical cores, 20 logical processors, using up to 20 threads
Optimize a model with 6007 rows, 4529 columns and 24534 nonzeros
Model fingerprint: 0xfdece19a
Variable types: 4506 continuous, 23 integer (23 binary)
Coefficient statistics:
  Matrix range     [1e+00, 1e+00]
  Objective range  [5e-03, 2e+00]
  Bounds range     [1e+00, 1e+00]
  RHS range        [1e+00, 1e+02]
Presolve removed 1514 rows and 1511 columns
Presolve time: 0.04s
Presolved: 4493 rows, 3018 columns, 21993 nonzeros
Variable types: 2998 continuous, 20 integer (20 binary)
Found heuristic solution: objective 297.1285505

Root relaxation: objective 3.011486e+02, 2958 iterations, 0.15 seconds (0.18 work units)

    Nodes    |    Current Node    |     Objective Bounds      |     Work
 Expl Unexpl |  Obj  Depth IntInf | Incumbent    BestBd   Gap | It/Node Time

     0     0  301.14862    0    3  297.12855  301.14862  1.35%     -    0s
     0     0  301.05346    0    3  297.12855  301.05346  1.32%     -    0s
     0     0  300.89222    0    3  297.12855  300.89222  1.27%     -    0s
     0     0  300.89178    0    3  297.12855  300.89178  1.27%     -    0s
     0     0  300.16900    0    2  297.12855  300.16900  1.02%     -    0s
     0     0  300.05183    0    2  297.12855  300.05183  0.98%     -    0s
     0     0  300.05183    0    2  297.12855  300.05183  0.98%     -    0s
H    0     0                     299.8680911  300.05183  0.06%     -    0s

Cutting planes:
  Gomory: 3
  MIR: 108
  Flow cover: 34
  RLT: 19
  Relax-and-lift: 2

Explored 1 nodes (3562 simplex iterations) in 0.79 seconds (0.58 work units)
Thread count was 20 (of 20 available processors)

Solution count 2: 299.868 297.129 

Optimal solution found (tolerance 1.00e-04)
Best objective 2.998680910743e+02, best bound 2.998680910743e+02, gap 0.0000%



#########node  1
V1.8
#########node  2
0.07766990291262134,0.9223300970873787
#########node  3
1.0,0.0


Total Solving Time 1.105288028717041
obj value 299.8680910742895
Policy Regret train (Sum) 0.5246451196991215
Best Treatment Found train (%) 90.2
treatment classification acc train (%) 68.4
Policy Regret test (Sum) 110.93848330628616
Best Treatment Found test (%) 62.73
treatment classification acc test (%) 67.58999999999999
